
%FILE DATA:	Soccer Computational Problem for MiniZinc Models	%
%AUTHOR:	Jack Wall	%
%CONTACT:  	116397063@umail.ucc.ie			%
%LAST UPDATE:	02/14/2020, 08:50:15						%
%DESCRIPTION: 	36 games played with 20 games left				%


n=8; %number of teams

%Games to play
games=[|3,5|6,7|1,5|6,4|5,2|4,3|1,4|4,5|3,6|4,7|3,2|4,2|2,3|8,1|3,8|8,7|2,5|1,3|8,4|1,6|];

%Initial points
iPoints=[8,16,15,9,17,9,18,9];

%POSITION CONSTRAINTS
% [|teamID, operator, position|...]
% operators index:
%  1 for =  operator
%  2 for >  operator
%  3 for >= operator
%  4 for <  operator
%  5 for <= operator
positionConstraints=[|5,4,2|2,5,2|];